WARNING: for repeatability, setting FPU to use double precision
============================[ Problem Statistics ]=============================
|                                                                             |
|  Number of variables:          8399                                         |
|  Number of clauses:          121640                                         |
|  Parse time:                   0.03 s                                       |
|  Eliminated clauses:           0.00 Mb                                      |
|  Simplification time:          0.03 s                                       |
|                                                                             |
============================[ Search Statistics ]==============================
| Conflicts |          ORIGINAL         |          LEARNT          | Progress |
|           |    Vars  Clauses Literals |    Limit  Clauses Lit/Cl |          |
===============================================================================
===============================================================================
restarts              : 1
conflicts             : 2              (31 /sec)
decisions             : 126            (0.00 % random) (1945 /sec)
propagations          : 8206           (126693 /sec)
conflict literals     : 82             (0.00 % deleted)
Memory used           : 28.00 MB
CPU time              : 0.064771 s

SATISFIABLE
